(set-logic QF_LRA)
(declare-fun X0 () Real )
(declare-fun Y0 () Real )
(declare-fun X1 () Real )
(declare-fun Y1 () Real )
(declare-fun X2 () Real )
(declare-fun Y2 () Real )
(declare-fun X3 () Real )
(declare-fun Y3 () Real )
(declare-fun X4 () Real )
(declare-fun Y4 () Real )
(declare-fun X5 () Real )
(declare-fun Y5 () Real )
(declare-fun X6 () Real )
(declare-fun Y6 () Real )
(declare-fun X7 () Real )
(declare-fun Y7 () Real )
(declare-fun X8 () Real )
(declare-fun Y8 () Real )
(declare-fun X9 () Real )
(declare-fun Y9 () Real )
(declare-fun X10 () Real )
(declare-fun Y10 () Real )
(declare-fun X11 () Real )
(declare-fun Y11 () Real )
(declare-fun X12 () Real )
(declare-fun Y12 () Real )
(declare-fun X13 () Real )
(declare-fun Y13 () Real )
(declare-fun X14 () Real )
(declare-fun Y14 () Real )
(declare-fun Z () Real )
(declare-fun k () Real )
(assert (let
(( $goal (>= Z k) ))
(let
((
$phi ( and 
( or ( <= ( + X0 90 ) X1 )  ( <= ( + X1 23 ) X0 )  ( <= ( + Y0 47 ) Y1 )  ( <= ( + Y1 72 ) Y0 )  )
( or ( <= ( + X0 90 ) X2 )  ( <= ( + X2 86 ) X0 )  ( <= ( + Y0 47 ) Y2 )  ( <= ( + Y2 81 ) Y0 )  )
( or ( <= ( + X0 90 ) X3 )  ( <= ( + X3 93 ) X0 )  ( <= ( + Y0 47 ) Y3 )  ( <= ( + Y3 67 ) Y0 )  )
( or ( <= ( + X0 90 ) X4 )  ( <= ( + X4 54 ) X0 )  ( <= ( + Y0 47 ) Y4 )  ( <= ( + Y4 86 ) Y0 )  )
( or ( <= ( + X0 90 ) X5 )  ( <= ( + X5 30 ) X0 )  ( <= ( + Y0 47 ) Y5 )  ( <= ( + Y5 96 ) Y0 )  )
( or ( <= ( + X0 90 ) X6 )  ( <= ( + X6 83 ) X0 )  ( <= ( + Y0 47 ) Y6 )  ( <= ( + Y6 11 ) Y0 )  )
( or ( <= ( + X0 90 ) X7 )  ( <= ( + X7 84 ) X0 )  ( <= ( + Y0 47 ) Y7 )  ( <= ( + Y7 64 ) Y0 )  )
( or ( <= ( + X0 90 ) X8 )  ( <= ( + X8 11 ) X0 )  ( <= ( + Y0 47 ) Y8 )  ( <= ( + Y8 30 ) Y0 )  )
( or ( <= ( + X0 90 ) X9 )  ( <= ( + X9 33 ) X0 )  ( <= ( + Y0 47 ) Y9 )  ( <= ( + Y9 84 ) Y0 )  )
( or ( <= ( + X0 90 ) X10 )  ( <= ( + X10 61 ) X0 )  ( <= ( + Y0 47 ) Y10 )  ( <= ( + Y10 1 ) Y0 )  )
( or ( <= ( + X0 90 ) X11 )  ( <= ( + X11 69 ) X0 )  ( <= ( + Y0 47 ) Y11 )  ( <= ( + Y11 9 ) Y0 )  )
( or ( <= ( + X0 90 ) X12 )  ( <= ( + X12 21 ) X0 )  ( <= ( + Y0 47 ) Y12 )  ( <= ( + Y12 94 ) Y0 )  )
( or ( <= ( + X0 90 ) X13 )  ( <= ( + X13 63 ) X0 )  ( <= ( + Y0 47 ) Y13 )  ( <= ( + Y13 61 ) Y0 )  )
( or ( <= ( + X0 90 ) X14 )  ( <= ( + X14 8 ) X0 )  ( <= ( + Y0 47 ) Y14 )  ( <= ( + Y14 56 ) Y0 )  )
( or ( <= ( + X1 23 ) X2 )  ( <= ( + X2 86 ) X1 )  ( <= ( + Y1 72 ) Y2 )  ( <= ( + Y2 81 ) Y1 )  )
( or ( <= ( + X1 23 ) X3 )  ( <= ( + X3 93 ) X1 )  ( <= ( + Y1 72 ) Y3 )  ( <= ( + Y3 67 ) Y1 )  )
( or ( <= ( + X1 23 ) X4 )  ( <= ( + X4 54 ) X1 )  ( <= ( + Y1 72 ) Y4 )  ( <= ( + Y4 86 ) Y1 )  )
( or ( <= ( + X1 23 ) X5 )  ( <= ( + X5 30 ) X1 )  ( <= ( + Y1 72 ) Y5 )  ( <= ( + Y5 96 ) Y1 )  )
( or ( <= ( + X1 23 ) X6 )  ( <= ( + X6 83 ) X1 )  ( <= ( + Y1 72 ) Y6 )  ( <= ( + Y6 11 ) Y1 )  )
( or ( <= ( + X1 23 ) X7 )  ( <= ( + X7 84 ) X1 )  ( <= ( + Y1 72 ) Y7 )  ( <= ( + Y7 64 ) Y1 )  )
( or ( <= ( + X1 23 ) X8 )  ( <= ( + X8 11 ) X1 )  ( <= ( + Y1 72 ) Y8 )  ( <= ( + Y8 30 ) Y1 )  )
( or ( <= ( + X1 23 ) X9 )  ( <= ( + X9 33 ) X1 )  ( <= ( + Y1 72 ) Y9 )  ( <= ( + Y9 84 ) Y1 )  )
( or ( <= ( + X1 23 ) X10 )  ( <= ( + X10 61 ) X1 )  ( <= ( + Y1 72 ) Y10 )  ( <= ( + Y10 1 ) Y1 )  )
( or ( <= ( + X1 23 ) X11 )  ( <= ( + X11 69 ) X1 )  ( <= ( + Y1 72 ) Y11 )  ( <= ( + Y11 9 ) Y1 )  )
( or ( <= ( + X1 23 ) X12 )  ( <= ( + X12 21 ) X1 )  ( <= ( + Y1 72 ) Y12 )  ( <= ( + Y12 94 ) Y1 )  )
( or ( <= ( + X1 23 ) X13 )  ( <= ( + X13 63 ) X1 )  ( <= ( + Y1 72 ) Y13 )  ( <= ( + Y13 61 ) Y1 )  )
( or ( <= ( + X1 23 ) X14 )  ( <= ( + X14 8 ) X1 )  ( <= ( + Y1 72 ) Y14 )  ( <= ( + Y14 56 ) Y1 )  )
( or ( <= ( + X2 86 ) X3 )  ( <= ( + X3 93 ) X2 )  ( <= ( + Y2 81 ) Y3 )  ( <= ( + Y3 67 ) Y2 )  )
( or ( <= ( + X2 86 ) X4 )  ( <= ( + X4 54 ) X2 )  ( <= ( + Y2 81 ) Y4 )  ( <= ( + Y4 86 ) Y2 )  )
( or ( <= ( + X2 86 ) X5 )  ( <= ( + X5 30 ) X2 )  ( <= ( + Y2 81 ) Y5 )  ( <= ( + Y5 96 ) Y2 )  )
( or ( <= ( + X2 86 ) X6 )  ( <= ( + X6 83 ) X2 )  ( <= ( + Y2 81 ) Y6 )  ( <= ( + Y6 11 ) Y2 )  )
( or ( <= ( + X2 86 ) X7 )  ( <= ( + X7 84 ) X2 )  ( <= ( + Y2 81 ) Y7 )  ( <= ( + Y7 64 ) Y2 )  )
( or ( <= ( + X2 86 ) X8 )  ( <= ( + X8 11 ) X2 )  ( <= ( + Y2 81 ) Y8 )  ( <= ( + Y8 30 ) Y2 )  )
( or ( <= ( + X2 86 ) X9 )  ( <= ( + X9 33 ) X2 )  ( <= ( + Y2 81 ) Y9 )  ( <= ( + Y9 84 ) Y2 )  )
( or ( <= ( + X2 86 ) X10 )  ( <= ( + X10 61 ) X2 )  ( <= ( + Y2 81 ) Y10 )  ( <= ( + Y10 1 ) Y2 )  )
( or ( <= ( + X2 86 ) X11 )  ( <= ( + X11 69 ) X2 )  ( <= ( + Y2 81 ) Y11 )  ( <= ( + Y11 9 ) Y2 )  )
( or ( <= ( + X2 86 ) X12 )  ( <= ( + X12 21 ) X2 )  ( <= ( + Y2 81 ) Y12 )  ( <= ( + Y12 94 ) Y2 )  )
( or ( <= ( + X2 86 ) X13 )  ( <= ( + X13 63 ) X2 )  ( <= ( + Y2 81 ) Y13 )  ( <= ( + Y13 61 ) Y2 )  )
( or ( <= ( + X2 86 ) X14 )  ( <= ( + X14 8 ) X2 )  ( <= ( + Y2 81 ) Y14 )  ( <= ( + Y14 56 ) Y2 )  )
( or ( <= ( + X3 93 ) X4 )  ( <= ( + X4 54 ) X3 )  ( <= ( + Y3 67 ) Y4 )  ( <= ( + Y4 86 ) Y3 )  )
( or ( <= ( + X3 93 ) X5 )  ( <= ( + X5 30 ) X3 )  ( <= ( + Y3 67 ) Y5 )  ( <= ( + Y5 96 ) Y3 )  )
( or ( <= ( + X3 93 ) X6 )  ( <= ( + X6 83 ) X3 )  ( <= ( + Y3 67 ) Y6 )  ( <= ( + Y6 11 ) Y3 )  )
( or ( <= ( + X3 93 ) X7 )  ( <= ( + X7 84 ) X3 )  ( <= ( + Y3 67 ) Y7 )  ( <= ( + Y7 64 ) Y3 )  )
( or ( <= ( + X3 93 ) X8 )  ( <= ( + X8 11 ) X3 )  ( <= ( + Y3 67 ) Y8 )  ( <= ( + Y8 30 ) Y3 )  )
( or ( <= ( + X3 93 ) X9 )  ( <= ( + X9 33 ) X3 )  ( <= ( + Y3 67 ) Y9 )  ( <= ( + Y9 84 ) Y3 )  )
( or ( <= ( + X3 93 ) X10 )  ( <= ( + X10 61 ) X3 )  ( <= ( + Y3 67 ) Y10 )  ( <= ( + Y10 1 ) Y3 )  )
( or ( <= ( + X3 93 ) X11 )  ( <= ( + X11 69 ) X3 )  ( <= ( + Y3 67 ) Y11 )  ( <= ( + Y11 9 ) Y3 )  )
( or ( <= ( + X3 93 ) X12 )  ( <= ( + X12 21 ) X3 )  ( <= ( + Y3 67 ) Y12 )  ( <= ( + Y12 94 ) Y3 )  )
( or ( <= ( + X3 93 ) X13 )  ( <= ( + X13 63 ) X3 )  ( <= ( + Y3 67 ) Y13 )  ( <= ( + Y13 61 ) Y3 )  )
( or ( <= ( + X3 93 ) X14 )  ( <= ( + X14 8 ) X3 )  ( <= ( + Y3 67 ) Y14 )  ( <= ( + Y14 56 ) Y3 )  )
( or ( <= ( + X4 54 ) X5 )  ( <= ( + X5 30 ) X4 )  ( <= ( + Y4 86 ) Y5 )  ( <= ( + Y5 96 ) Y4 )  )
( or ( <= ( + X4 54 ) X6 )  ( <= ( + X6 83 ) X4 )  ( <= ( + Y4 86 ) Y6 )  ( <= ( + Y6 11 ) Y4 )  )
( or ( <= ( + X4 54 ) X7 )  ( <= ( + X7 84 ) X4 )  ( <= ( + Y4 86 ) Y7 )  ( <= ( + Y7 64 ) Y4 )  )
( or ( <= ( + X4 54 ) X8 )  ( <= ( + X8 11 ) X4 )  ( <= ( + Y4 86 ) Y8 )  ( <= ( + Y8 30 ) Y4 )  )
( or ( <= ( + X4 54 ) X9 )  ( <= ( + X9 33 ) X4 )  ( <= ( + Y4 86 ) Y9 )  ( <= ( + Y9 84 ) Y4 )  )
( or ( <= ( + X4 54 ) X10 )  ( <= ( + X10 61 ) X4 )  ( <= ( + Y4 86 ) Y10 )  ( <= ( + Y10 1 ) Y4 )  )
( or ( <= ( + X4 54 ) X11 )  ( <= ( + X11 69 ) X4 )  ( <= ( + Y4 86 ) Y11 )  ( <= ( + Y11 9 ) Y4 )  )
( or ( <= ( + X4 54 ) X12 )  ( <= ( + X12 21 ) X4 )  ( <= ( + Y4 86 ) Y12 )  ( <= ( + Y12 94 ) Y4 )  )
( or ( <= ( + X4 54 ) X13 )  ( <= ( + X13 63 ) X4 )  ( <= ( + Y4 86 ) Y13 )  ( <= ( + Y13 61 ) Y4 )  )
( or ( <= ( + X4 54 ) X14 )  ( <= ( + X14 8 ) X4 )  ( <= ( + Y4 86 ) Y14 )  ( <= ( + Y14 56 ) Y4 )  )
( or ( <= ( + X5 30 ) X6 )  ( <= ( + X6 83 ) X5 )  ( <= ( + Y5 96 ) Y6 )  ( <= ( + Y6 11 ) Y5 )  )
( or ( <= ( + X5 30 ) X7 )  ( <= ( + X7 84 ) X5 )  ( <= ( + Y5 96 ) Y7 )  ( <= ( + Y7 64 ) Y5 )  )
( or ( <= ( + X5 30 ) X8 )  ( <= ( + X8 11 ) X5 )  ( <= ( + Y5 96 ) Y8 )  ( <= ( + Y8 30 ) Y5 )  )
( or ( <= ( + X5 30 ) X9 )  ( <= ( + X9 33 ) X5 )  ( <= ( + Y5 96 ) Y9 )  ( <= ( + Y9 84 ) Y5 )  )
( or ( <= ( + X5 30 ) X10 )  ( <= ( + X10 61 ) X5 )  ( <= ( + Y5 96 ) Y10 )  ( <= ( + Y10 1 ) Y5 )  )
( or ( <= ( + X5 30 ) X11 )  ( <= ( + X11 69 ) X5 )  ( <= ( + Y5 96 ) Y11 )  ( <= ( + Y11 9 ) Y5 )  )
( or ( <= ( + X5 30 ) X12 )  ( <= ( + X12 21 ) X5 )  ( <= ( + Y5 96 ) Y12 )  ( <= ( + Y12 94 ) Y5 )  )
( or ( <= ( + X5 30 ) X13 )  ( <= ( + X13 63 ) X5 )  ( <= ( + Y5 96 ) Y13 )  ( <= ( + Y13 61 ) Y5 )  )
( or ( <= ( + X5 30 ) X14 )  ( <= ( + X14 8 ) X5 )  ( <= ( + Y5 96 ) Y14 )  ( <= ( + Y14 56 ) Y5 )  )
( or ( <= ( + X6 83 ) X7 )  ( <= ( + X7 84 ) X6 )  ( <= ( + Y6 11 ) Y7 )  ( <= ( + Y7 64 ) Y6 )  )
( or ( <= ( + X6 83 ) X8 )  ( <= ( + X8 11 ) X6 )  ( <= ( + Y6 11 ) Y8 )  ( <= ( + Y8 30 ) Y6 )  )
( or ( <= ( + X6 83 ) X9 )  ( <= ( + X9 33 ) X6 )  ( <= ( + Y6 11 ) Y9 )  ( <= ( + Y9 84 ) Y6 )  )
( or ( <= ( + X6 83 ) X10 )  ( <= ( + X10 61 ) X6 )  ( <= ( + Y6 11 ) Y10 )  ( <= ( + Y10 1 ) Y6 )  )
( or ( <= ( + X6 83 ) X11 )  ( <= ( + X11 69 ) X6 )  ( <= ( + Y6 11 ) Y11 )  ( <= ( + Y11 9 ) Y6 )  )
( or ( <= ( + X6 83 ) X12 )  ( <= ( + X12 21 ) X6 )  ( <= ( + Y6 11 ) Y12 )  ( <= ( + Y12 94 ) Y6 )  )
( or ( <= ( + X6 83 ) X13 )  ( <= ( + X13 63 ) X6 )  ( <= ( + Y6 11 ) Y13 )  ( <= ( + Y13 61 ) Y6 )  )
( or ( <= ( + X6 83 ) X14 )  ( <= ( + X14 8 ) X6 )  ( <= ( + Y6 11 ) Y14 )  ( <= ( + Y14 56 ) Y6 )  )
( or ( <= ( + X7 84 ) X8 )  ( <= ( + X8 11 ) X7 )  ( <= ( + Y7 64 ) Y8 )  ( <= ( + Y8 30 ) Y7 )  )
( or ( <= ( + X7 84 ) X9 )  ( <= ( + X9 33 ) X7 )  ( <= ( + Y7 64 ) Y9 )  ( <= ( + Y9 84 ) Y7 )  )
( or ( <= ( + X7 84 ) X10 )  ( <= ( + X10 61 ) X7 )  ( <= ( + Y7 64 ) Y10 )  ( <= ( + Y10 1 ) Y7 )  )
( or ( <= ( + X7 84 ) X11 )  ( <= ( + X11 69 ) X7 )  ( <= ( + Y7 64 ) Y11 )  ( <= ( + Y11 9 ) Y7 )  )
( or ( <= ( + X7 84 ) X12 )  ( <= ( + X12 21 ) X7 )  ( <= ( + Y7 64 ) Y12 )  ( <= ( + Y12 94 ) Y7 )  )
( or ( <= ( + X7 84 ) X13 )  ( <= ( + X13 63 ) X7 )  ( <= ( + Y7 64 ) Y13 )  ( <= ( + Y13 61 ) Y7 )  )
( or ( <= ( + X7 84 ) X14 )  ( <= ( + X14 8 ) X7 )  ( <= ( + Y7 64 ) Y14 )  ( <= ( + Y14 56 ) Y7 )  )
( or ( <= ( + X8 11 ) X9 )  ( <= ( + X9 33 ) X8 )  ( <= ( + Y8 30 ) Y9 )  ( <= ( + Y9 84 ) Y8 )  )
( or ( <= ( + X8 11 ) X10 )  ( <= ( + X10 61 ) X8 )  ( <= ( + Y8 30 ) Y10 )  ( <= ( + Y10 1 ) Y8 )  )
( or ( <= ( + X8 11 ) X11 )  ( <= ( + X11 69 ) X8 )  ( <= ( + Y8 30 ) Y11 )  ( <= ( + Y11 9 ) Y8 )  )
( or ( <= ( + X8 11 ) X12 )  ( <= ( + X12 21 ) X8 )  ( <= ( + Y8 30 ) Y12 )  ( <= ( + Y12 94 ) Y8 )  )
( or ( <= ( + X8 11 ) X13 )  ( <= ( + X13 63 ) X8 )  ( <= ( + Y8 30 ) Y13 )  ( <= ( + Y13 61 ) Y8 )  )
( or ( <= ( + X8 11 ) X14 )  ( <= ( + X14 8 ) X8 )  ( <= ( + Y8 30 ) Y14 )  ( <= ( + Y14 56 ) Y8 )  )
( or ( <= ( + X9 33 ) X10 )  ( <= ( + X10 61 ) X9 )  ( <= ( + Y9 84 ) Y10 )  ( <= ( + Y10 1 ) Y9 )  )
( or ( <= ( + X9 33 ) X11 )  ( <= ( + X11 69 ) X9 )  ( <= ( + Y9 84 ) Y11 )  ( <= ( + Y11 9 ) Y9 )  )
( or ( <= ( + X9 33 ) X12 )  ( <= ( + X12 21 ) X9 )  ( <= ( + Y9 84 ) Y12 )  ( <= ( + Y12 94 ) Y9 )  )
( or ( <= ( + X9 33 ) X13 )  ( <= ( + X13 63 ) X9 )  ( <= ( + Y9 84 ) Y13 )  ( <= ( + Y13 61 ) Y9 )  )
( or ( <= ( + X9 33 ) X14 )  ( <= ( + X14 8 ) X9 )  ( <= ( + Y9 84 ) Y14 )  ( <= ( + Y14 56 ) Y9 )  )
( or ( <= ( + X10 61 ) X11 )  ( <= ( + X11 69 ) X10 )  ( <= ( + Y10 1 ) Y11 )  ( <= ( + Y11 9 ) Y10 )  )
( or ( <= ( + X10 61 ) X12 )  ( <= ( + X12 21 ) X10 )  ( <= ( + Y10 1 ) Y12 )  ( <= ( + Y12 94 ) Y10 )  )
( or ( <= ( + X10 61 ) X13 )  ( <= ( + X13 63 ) X10 )  ( <= ( + Y10 1 ) Y13 )  ( <= ( + Y13 61 ) Y10 )  )
( or ( <= ( + X10 61 ) X14 )  ( <= ( + X14 8 ) X10 )  ( <= ( + Y10 1 ) Y14 )  ( <= ( + Y14 56 ) Y10 )  )
( or ( <= ( + X11 69 ) X12 )  ( <= ( + X12 21 ) X11 )  ( <= ( + Y11 9 ) Y12 )  ( <= ( + Y12 94 ) Y11 )  )
( or ( <= ( + X11 69 ) X13 )  ( <= ( + X13 63 ) X11 )  ( <= ( + Y11 9 ) Y13 )  ( <= ( + Y13 61 ) Y11 )  )
( or ( <= ( + X11 69 ) X14 )  ( <= ( + X14 8 ) X11 )  ( <= ( + Y11 9 ) Y14 )  ( <= ( + Y14 56 ) Y11 )  )
( or ( <= ( + X12 21 ) X13 )  ( <= ( + X13 63 ) X12 )  ( <= ( + Y12 94 ) Y13 )  ( <= ( + Y13 61 ) Y12 )  )
( or ( <= ( + X12 21 ) X14 )  ( <= ( + X14 8 ) X12 )  ( <= ( + Y12 94 ) Y14 )  ( <= ( + Y14 56 ) Y12 )  )
( or ( <= ( + X13 63 ) X14 )  ( <= ( + X14 8 ) X13 )  ( <= ( + Y13 61 ) Y14 )  ( <= ( + Y14 56 ) Y13 )  )
( >= X0 0)
( <= ( + X0 90) Z)
( >= Y0 0)
( <= ( + Y0 47 ) 100)
( >= X1 0)
( <= ( + X1 23) Z)
( >= Y1 0)
( <= ( + Y1 72 ) 100)
( >= X2 0)
( <= ( + X2 86) Z)
( >= Y2 0)
( <= ( + Y2 81 ) 100)
( >= X3 0)
( <= ( + X3 93) Z)
( >= Y3 0)
( <= ( + Y3 67 ) 100)
( >= X4 0)
( <= ( + X4 54) Z)
( >= Y4 0)
( <= ( + Y4 86 ) 100)
( >= X5 0)
( <= ( + X5 30) Z)
( >= Y5 0)
( <= ( + Y5 96 ) 100)
( >= X6 0)
( <= ( + X6 83) Z)
( >= Y6 0)
( <= ( + Y6 11 ) 100)
( >= X7 0)
( <= ( + X7 84) Z)
( >= Y7 0)
( <= ( + Y7 64 ) 100)
( >= X8 0)
( <= ( + X8 11) Z)
( >= Y8 0)
( <= ( + Y8 30 ) 100)
( >= X9 0)
( <= ( + X9 33) Z)
( >= Y9 0)
( <= ( + Y9 84 ) 100)
( >= X10 0)
( <= ( + X10 61) Z)
( >= Y10 0)
( <= ( + Y10 1 ) 100)
( >= X11 0)
( <= ( + X11 69) Z)
( >= Y11 0)
( <= ( + Y11 9 ) 100)
( >= X12 0)
( <= ( + X12 21) Z)
( >= Y12 0)
( <= ( + Y12 94 ) 100)
( >= X13 0)
( <= ( + X13 63) Z)
( >= Y13 0)
( <= ( + Y13 61 ) 100)
( >= X14 0)
( <= ( + X14 8) Z)
( >= Y14 0)
( <= ( + Y14 56 ) 100)
) )
)(=> $phi $goal))))